# avogadro generated ORCA input file 
# Basic Mode
#
# default line below
#! CCSD SP def2-SVP
#
# from single point energy below
!DLPNO-CCSD(T) cc-pVTZ cc-pVTZ/C
!LARGEPRINT

* xyz 2 1
   C       -2.82970        1.59960        2.85040
   C       -2.02790        0.68170        2.32150
   N       -1.16470        0.95690        1.11970
  Fe        0.01140       -0.01930        0.02790
   N        0.26540        1.52960       -1.00390
   C       -0.42900        2.35590       -0.48480
   C       -0.50600        3.70330       -0.98260
   C        0.14710        4.10190       -2.09010
   C        0.95800        3.10770       -2.79390
   C        1.00440        1.88970       -2.26480
   C       -1.19730        2.04900        0.62550
   C       -2.04090        3.09330        1.14140
   C       -2.84100        2.91480        2.20840
   N        1.22580       -0.94160       -1.06880
   C        2.29480       -0.75670       -0.55880
   C        2.41400       -0.01230        0.60270
   N        1.45090        0.46800        1.13110
   C        1.64690        1.31470        2.35970
   C        2.84310        1.52840        2.89700
   C        3.98510        0.89550        2.23560
   C        3.73890        0.16170        1.13490
   C        3.50940       -1.28460       -1.12130
   C        3.52550       -2.00620       -2.25740
   C        2.24470       -2.24910       -2.92210
   C        1.16310       -1.73730       -2.34470
   N       -0.28810       -1.58040        1.02830
   C        0.38600       -2.30280        2.16340
   C       -0.05780       -3.46040        2.64050
   C       -1.25250       -4.02170        2.00840
   C       -1.78750       -3.33960        0.97950
   C       -1.22890       -2.10420        0.49960
   C       -1.82530       -1.54140       -0.61630
   N       -1.42410       -0.51170       -1.07860
   C       -2.16700        0.09890       -2.23620
   C       -3.21560       -0.49000       -2.80130
   C       -3.62880       -1.77810       -2.24330
   C       -2.93690       -2.25120       -1.19040
   H       -3.43620        1.38640        3.70990
   H       -1.99310       -0.30380        2.77490
   H       -1.11030        4.42530       -0.44360
   H        0.07410        5.11510       -2.44190
   H        1.48880        3.34710       -3.69520
   H        1.59530        1.12620       -2.76010
   H       -2.03350        4.06040        0.64890
   H       -3.46580        3.71060        2.57120
   H        0.77740        1.76820        2.82520
   H        2.96390        2.13670        3.77300
   H        4.98550        1.01180        2.61170
   H        4.57150       -0.31690        0.62920
   H        4.44760       -1.09270       -0.61080
   H        4.44670       -2.38720       -2.65930
   H        2.17900       -2.81370       -3.83250
   H        0.19640       -1.89960       -2.81070
   H        1.27320       -1.86300        2.60890
   H        0.43860       -3.96130        3.45020
   H       -1.69070       -4.94140        2.35110
   H       -2.67430       -3.73370        0.49350
   H       -1.83610        1.05790       -2.62170
   H       -3.73400       -0.03960       -3.62600
   H       -4.45260       -2.33010       -2.65810
   H       -3.22670       -3.20370       -0.75900
*

